NAME: st70-12-0
TYPE: TSP
COMMENT: min_cost = 343.87
DIMENSION: 12
EDGE_WEIGHT_TYPE: EUC_2D
NODE_COORD_SECTION
1 25 5
2 42 67
3 16 74
4 17 22
5 87 18
6 5 45
7 12 13
8 95 57
9 9 100
10 52 18
11 83 86
12 8 19
EOF
